NAME : G100_1213_01
COMMENT : Generated CVRP instance (n=100)
TYPE : CVRP
DIMENSION : 101
EDGE_WEIGHT_TYPE : EUC_2D
CAPACITY : 8
NODE_COORD_SECTION
1    882  575 
2    532  192 
3    844  327 
4    168  562 
5    123  557 
6    897  61  
7    233  612 
8    233  676 
9    494  384 
10   533  214 
11   525  91  
12   152  568 
13   297  251 
14   835  219 
15   554  465 
16   391  404 
17   297  690 
18   330  522 
19   884  376 
20   515  338 
21   923  304 
22   405  433 
23   499  211 
24   977  488 
25   976  477 
26   439  175 
27   190  590 
28   856  152 
29   447  350 
30   800  498 
31   759  173 
32   150  575 
33   371  275 
34   863  221 
35   349  802 
36   238  480 
37   266  377 
38   855  363 
39   217  674 
40   889  660 
41   168  744 
42   860  206 
43   556  707 
44   423  232 
45   187  678 
46   105  691 
47   39   718 
48   853  148 
49   533  195 
50   522  378 
51   551  219 
52   255  742 
53   192  286 
54   221  694 
55   728  235 
56   503  190 
57   538  230 
58   339  420 
59   181  459 
60   938  511 
61   578  430 
62   826  187 
63   350  679 
64   224  637 
65   454  425 
66   397  501 
67   906  573 
68   712  302 
69   350  471 
70   461  695 
71   210  704 
72   136  666 
73   366  518 
74   163  775 
75   516  615 
76   870  490 
77   369  733 
78   145  534 
79   708  211 
80   462  152 
81   258  877 
82   127  683 
83   257  661 
84   409  356 
85   353  787 
86   852  242 
87   124  671 
88   937  493 
89   844  158 
90   223  622 
91   837  219 
92   223  585 
93   513  339 
94   826  79  
95   109  728 
96   948  416 
97   589  215 
98   879  200 
99   916  118 
100  410  386 
101  243  645 
DEMAND_SECTION
1    0   
2    1   
3    1   
4    1   
5    1   
6    1   
7    1   
8    1   
9    1   
10   1   
11   1   
12   1   
13   1   
14   1   
15   1   
16   1   
17   1   
18   1   
19   1   
20   1   
21   1   
22   1   
23   1   
24   1   
25   1   
26   1   
27   1   
28   1   
29   1   
30   1   
31   1   
32   1   
33   1   
34   1   
35   1   
36   1   
37   1   
38   1   
39   1   
40   1   
41   1   
42   1   
43   1   
44   1   
45   1   
46   1   
47   1   
48   1   
49   1   
50   1   
51   1   
52   1   
53   1   
54   1   
55   1   
56   1   
57   1   
58   1   
59   1   
60   1   
61   1   
62   1   
63   1   
64   1   
65   1   
66   1   
67   1   
68   1   
69   1   
70   1   
71   1   
72   1   
73   1   
74   1   
75   1   
76   1   
77   1   
78   1   
79   1   
80   1   
81   1   
82   1   
83   1   
84   1   
85   1   
86   1   
87   1   
88   1   
89   1   
90   1   
91   1   
92   1   
93   1   
94   1   
95   1   
96   1   
97   1   
98   1   
99   1   
100  1   
101  1   
DEPOT_SECTION
1
-1
EOF
